solution status: time limit reached
objective value:                                  117
$and$benchmarks/c432.v:90$252_y                     8 	(obj:0)
$and$benchmarks/c432.v:90$252_z                    -1 	(obj:0)
$and$benchmarks/c432.v:187$421_y                   13 	(obj:0)
$and$benchmarks/c432.v:187$421_z                    3 	(obj:0)
$and$benchmarks/c432.v:112$286_y                    8 	(obj:0)
$and$benchmarks/c432.v:112$286_z                    1 	(obj:0)
$and$benchmarks/c432.v:128$318_y                    9 	(obj:0)
$and$benchmarks/c432.v:128$318_z                   -5 	(obj:0)
$and$benchmarks/c432.v:170$382_y                   11 	(obj:0)
$and$benchmarks/c432.v:170$382_z                    1 	(obj:0)
$xor$benchmarks/c432.v:105$273_y                    8 	(obj:0)
$xor$benchmarks/c432.v:105$273_z                   -2 	(obj:0)
$and$benchmarks/c432.v:204$467_y                   13 	(obj:0)
$and$benchmarks/c432.v:204$467_z                   -1 	(obj:0)
$and$benchmarks/c432.v:125$312_y                    9 	(obj:0)
$and$benchmarks/c432.v:129$320_y                    8 	(obj:0)
$and$benchmarks/c432.v:129$320_z                   -4 	(obj:0)
$and$benchmarks/c432.v:182$403_y                   11 	(obj:0)
$and$benchmarks/c432.v:182$403_z                    6 	(obj:0)
$and$benchmarks/c432.v:201$455_y                   15 	(obj:0)
$and$benchmarks/c432.v:90$251_y                     7 	(obj:0)
$and$benchmarks/c432.v:90$251_z                     3 	(obj:0)
$and$benchmarks/c432.v:90$253_y                     9 	(obj:0)
$and$benchmarks/c432.v:90$253_z                    -3 	(obj:0)
$not$benchmarks/c432.v:0$458_y                     18 	(obj:0)
$not$benchmarks/c432.v:0$458_z                     -3 	(obj:0)
$and$benchmarks/c432.v:192$440_y                   19 	(obj:0)
$and$benchmarks/c432.v:192$440_z                   -2 	(obj:0)
$xor$benchmarks/c432.v:98$263_y                    11 	(obj:0)
$xor$benchmarks/c432.v:98$263_z                     2 	(obj:0)
$and$benchmarks/c432.v:122$306_y                   12 	(obj:0)
$and$benchmarks/c432.v:122$306_z                    1 	(obj:0)
$and$benchmarks/c432.v:185$413_y                    9 	(obj:0)
$and$benchmarks/c432.v:185$413_z                   -1 	(obj:0)
$not$benchmarks/c432.v:0$454_y                     11 	(obj:0)
$not$benchmarks/c432.v:0$454_z                     -5 	(obj:0)
$and$benchmarks/c432.v:189$429_y                   10 	(obj:0)
$and$benchmarks/c432.v:189$429_z                    3 	(obj:0)
$xor$benchmarks/c432.v:99$264_y                    13 	(obj:0)
$xor$benchmarks/c432.v:99$264_z                    -3 	(obj:0)
$not$benchmarks/c432.v:0$489_y                     12 	(obj:0)
$not$benchmarks/c432.v:0$489_z                     -2 	(obj:0)
$not$benchmarks/c432.v:0$491_y                     12 	(obj:0)
$not$benchmarks/c432.v:0$491_z                     -5 	(obj:0)
$and$benchmarks/c432.v:90$256_y                    14 	(obj:0)
$and$benchmarks/c432.v:90$256_z                    -2 	(obj:0)
$xor$benchmarks/c432.v:97$262_y                    12 	(obj:0)
$xor$benchmarks/c432.v:97$262_z                    -1 	(obj:0)
$and$benchmarks/c432.v:192$442_y                   14 	(obj:0)
$and$benchmarks/c432.v:188$425_y                    7 	(obj:0)
$and$benchmarks/c432.v:188$425_z                    2 	(obj:0)
$and$benchmarks/c432.v:199$450_y                   15 	(obj:0)
$and$benchmarks/c432.v:199$450_z                    2 	(obj:0)
$and$benchmarks/c432.v:124$310_y                    7 	(obj:0)
$and$benchmarks/c432.v:124$310_z                    1 	(obj:0)
$xor$benchmarks/c432.v:95$260_y                    10 	(obj:0)
$xor$benchmarks/c432.v:95$260_z                    -1 	(obj:0)
$and$benchmarks/c432.v:118$298_y                   14 	(obj:0)
$and$benchmarks/c432.v:118$298_z                   -3 	(obj:0)
$and$benchmarks/c432.v:90$258_y                    11 	(obj:0)
$and$benchmarks/c432.v:90$258_z                    -4 	(obj:0)
$not$benchmarks/c432.v:0$447_y                     13 	(obj:0)
$not$benchmarks/c432.v:0$447_z                     -2 	(obj:0)
$and$benchmarks/c432.v:117$296_y                    9 	(obj:0)
$and$benchmarks/c432.v:117$296_z                    3 	(obj:0)
$and$benchmarks/c432.v:90$254_y                     9 	(obj:0)
$and$benchmarks/c432.v:90$254_z                     1 	(obj:0)
$and$benchmarks/c432.v:203$463_y                   12 	(obj:0)
$and$benchmarks/c432.v:203$463_z                   -3 	(obj:0)
$and$benchmarks/c432.v:200$452_y                   15 	(obj:0)
$and$benchmarks/c432.v:200$452_z                   -1 	(obj:0)
$and$benchmarks/c432.v:120$302_y                    4 	(obj:0)
$and$benchmarks/c432.v:120$302_z                   -4 	(obj:0)
$and$benchmarks/c432.v:115$292_y                    5 	(obj:0)
$and$benchmarks/c432.v:115$292_z                    2 	(obj:0)
$and$benchmarks/c432.v:201$456_y                   14 	(obj:0)
$and$benchmarks/c432.v:201$456_z                   -4 	(obj:0)
$and$benchmarks/c432.v:114$290_y                   10 	(obj:0)
$and$benchmarks/c432.v:114$290_z                    1 	(obj:0)
$and$benchmarks/c432.v:127$316_y                   10 	(obj:0)
$and$benchmarks/c432.v:127$316_z                   -3 	(obj:0)
$and$benchmarks/c432.v:192$439_y                   19 	(obj:0)
$and$benchmarks/c432.v:192$439_z                   -1 	(obj:0)
$and$benchmarks/c432.v:192$443_y                   12 	(obj:0)
$and$benchmarks/c432.v:192$443_z                    2 	(obj:0)
$xor$benchmarks/c432.v:94$259_y                    11 	(obj:0)
$xor$benchmarks/c432.v:94$259_z                    -1 	(obj:0)
$and$benchmarks/c432.v:192$438_y                   15 	(obj:0)
$and$benchmarks/c432.v:192$438_z                   -4 	(obj:0)
$not$benchmarks/c432.v:0$501_y                      8 	(obj:0)
$not$benchmarks/c432.v:0$501_z                     -3 	(obj:0)
$xor$benchmarks/c432.v:96$261_y                    11 	(obj:0)
$xor$benchmarks/c432.v:96$261_z                    -2 	(obj:0)
$and$benchmarks/c432.v:186$417_y                   13 	(obj:0)
$not$benchmarks/c432.v:0$505_y                     11 	(obj:0)
$not$benchmarks/c432.v:0$505_z                      3 	(obj:0)
$and$benchmarks/c432.v:183$405_y                   12 	(obj:0)
$and$benchmarks/c432.v:183$405_z                    3 	(obj:0)
$and$benchmarks/c432.v:119$300_y                   12 	(obj:0)
$and$benchmarks/c432.v:123$308_y                   10 	(obj:0)
$and$benchmarks/c432.v:123$308_z                    2 	(obj:0)
$and$benchmarks/c432.v:90$257_y                    13 	(obj:0)
$and$benchmarks/c432.v:90$257_z                    -5 	(obj:0)
$and$benchmarks/c432.v:126$314_y                   14 	(obj:0)
$and$benchmarks/c432.v:126$314_z                   -5 	(obj:0)
$and$benchmarks/c432.v:199$448_y                   15 	(obj:0)
$and$benchmarks/c432.v:199$448_z                   -2 	(obj:0)
$and$benchmarks/c432.v:116$294_y                   11 	(obj:0)
$and$benchmarks/c432.v:184$409_y                    8 	(obj:0)
$and$benchmarks/c432.v:184$409_z                    3 	(obj:0)
$and$benchmarks/c432.v:192$437_y                   13 	(obj:0)
$and$benchmarks/c432.v:192$437_z                   -4 	(obj:0)
$and$benchmarks/c432.v:113$288_y                   10 	(obj:0)
$and$benchmarks/c432.v:202$461_y                   17 	(obj:0)
$and$benchmarks/c432.v:202$461_z                   -1 	(obj:0)
$not$benchmarks/c432.v:0$503_y                     10 	(obj:0)
$not$benchmarks/c432.v:0$503_z                     -4 	(obj:0)
$xor$benchmarks/c432.v:101$267_y                   10 	(obj:0)
$xor$benchmarks/c432.v:101$267_z                   -2 	(obj:0)
$and$benchmarks/c432.v:192$441_y                   15 	(obj:0)
$and$benchmarks/c432.v:192$441_z                   -3 	(obj:0)
$and$benchmarks/c432.v:121$304_y                    9 	(obj:0)
$and$benchmarks/c432.v:121$304_z                   -4 	(obj:0)
$and$benchmarks/c432.v:202$459_y                   16 	(obj:0)
$and$benchmarks/c432.v:202$459_z                   -3 	(obj:0)
$xor$benchmarks/c432.v:103$270_y                   11 	(obj:0)
$xor$benchmarks/c432.v:103$270_z                   -3 	(obj:0)
$and$benchmarks/c432.v:190$433_y                    4 	(obj:0)
$and$benchmarks/c432.v:190$433_z                    3 	(obj:0)
$and$benchmarks/c432.v:130$329_y                    6 	(obj:0)
$and$benchmarks/c432.v:130$329_z                   -3 	(obj:0)
$and$benchmarks/c432.v:90$255_y                    14 	(obj:0)
$and$benchmarks/c432.v:90$255_z                    -1 	(obj:0)
x147                                                2 	(obj:1)
x151                                                2 	(obj:1)
x157                                                3 	(obj:1)
x159                                                1 	(obj:1)
x160                                                2 	(obj:1)
x161                                                1 	(obj:1)
x165                                                2 	(obj:1)
x167                                                2 	(obj:1)
x168                                                2 	(obj:1)
x169                                                1 	(obj:1)
x172                                                1 	(obj:1)
x176                                                3 	(obj:1)
x178                                                3 	(obj:1)
x186                                                3 	(obj:1)
x187                                                1 	(obj:1)
x190                                                3 	(obj:1)
x192                                                2 	(obj:1)
x209                                                1 	(obj:1)
x210                                                3 	(obj:1)
x214                                                1 	(obj:1)
x216                                                3 	(obj:1)
x217                                                2 	(obj:1)
x220                                                2 	(obj:1)
x221                                                3 	(obj:1)
x225                                                1 	(obj:1)
x228                                                2 	(obj:1)
x235                                                1 	(obj:1)
x237                                                2 	(obj:1)
x238                                                3 	(obj:1)
x239                                                3 	(obj:1)
x240                                                3 	(obj:1)
x242                                                3 	(obj:1)
x243                                                1 	(obj:1)
x245                                                1 	(obj:1)
x247                                                3 	(obj:1)
x251                                                3 	(obj:1)
x253                                                2 	(obj:1)
x259                                                2 	(obj:1)
x263                                                2 	(obj:1)
x268                                                2 	(obj:1)
x270                                                2 	(obj:1)
x271                                                2 	(obj:1)
x275                                                1 	(obj:1)
x279                                                2 	(obj:1)
x280                                                1 	(obj:1)
x282                                                1 	(obj:1)
x285                                                1 	(obj:1)
x286                                                3 	(obj:1)
x290                                                3 	(obj:1)
x295                                                2 	(obj:1)
x307                                                3 	(obj:1)
x313                                                2 	(obj:1)
x315                                                2 	(obj:1)
x321                                                1 	(obj:1)
x324                                                1 	(obj:1)
x325                                                1 	(obj:1)
x331                                                1 	(obj:1)
x337                                                2 	(obj:1)
x343                                                2 	(obj:1)
x346                                                1 	(obj:1)
